<number of tasks>
32

<cycle time>
1768

<task times>
1 458
2 276
3 520
4 1400
5 352
6 196
7 214
8 456
9 646
10 512
11 408
12 262
13 544
14 202
15 458
16 694
17 616
18 678
19 328
20 324
21 100
22 352
23 544
24 500
25 382
26 858
27 388
28 352
29 428
30 238
31 258
32 196

<precedence relations>
1,5
2,6
3,9
4,15
5,6
6,7
6,8
6,9
7,21
8,21
9,10
9,11
10,16
11,12
12,13
13,14
13,15
14,16
14,17
15,17
16,18
17,19
18,21
19,20
20,21
21,22
21,23
21,24
22,25
23,32
24,32
25,26
26,27
27,28
28,29
29,30
30,31
31,32

<setup times forward>
1,2:178
1,4:178
1,5:247
2,1:178
2,3:178
2,5:69
2,6:69
3,2:178
3,4:178
3,5:247
3,6:247
3,7:187
3,8:247
3,9:247
4,1:178
4,3:178
4,5:69
4,6:69
4,7:9
4,8:69
4,9:69
4,10:61
4,11:61
4,12:61
4,13:61
4,14:42
4,15:101
4,16:42
4,18:42
5,2:69
5,3:247
5,4:69
6,3:247
6,4:69
6,7:60
7,3:187
7,4:9
7,8:60
7,9:60
7,10:70
7,11:70
7,12:70
7,13:70
7,14:51
7,15:92
7,16:51
7,17:92
7,18:51
7,19:92
7,20:92
8,3:247
8,4:69
8,7:60
8,10:130
8,11:130
8,12:130
8,13:130
8,14:111
8,15:32
8,16:111
8,17:32
8,18:111
8,19:32
8,20:32
8,21:60
9,4:69
9,7:60
9,10:130
9,11:130
10,4:61
10,7:70
10,8:130
10,14:19
10,15:162
10,16:19
10,17:162
10,19:162
10,20:162
11,4:61
11,7:70
11,8:130
12,4:61
12,7:70
12,8:130
13,4:61
13,7:70
13,8:130
13,14:19
13,15:162
14,4:42
14,7:51
14,8:111
14,10:19
14,15:143
14,17:143
15,7:92
15,8:32
15,10:162
15,14:143
15,16:143
15,18:143
16,4:42
16,7:51
16,8:111
16,15:143
16,17:143
16,19:143
16,20:143
17,7:92
17,8:32
17,10:162
17,16:143
17,18:143
18,4:42
18,7:51
18,8:111
18,15:143
18,17:143
18,19:143
18,20:143
18,21:51
19,7:92
19,8:32
19,10:162
19,16:143
19,18:143
20,7:92
20,8:32
20,10:162
20,16:143
20,18:143
20,21:92
22,25:148
23,25:148
23,26:148
23,27:148
23,28:103
23,29:103
23,30:103
23,31:103
23,32:103
24,25:148
24,26:148
24,27:148
24,28:103
24,29:103
24,30:103
24,31:103
24,32:103
25,23:148
25,24:148
26,23:148
26,24:148
27,23:148
27,24:148
27,28:251
28,23:103
28,24:103
29,23:103
29,24:103
30,23:103
30,24:103
31,23:103
31,24:103

<setup times backward>
1,1:42
1,2:220
1,3:42
1,4:220
2,2:42
2,4:42
2,5:111
3,1:42
3,2:220
3,3:42
3,4:220
3,5:289
3,6:289
3,7:229
3,8:289
4,2:42
4,4:42
4,5:111
4,6:111
4,7:51
4,8:111
4,9:111
5,5:42
6,5:42
6,6:42
7,2:33
7,4:33
7,5:102
7,6:102
7,7:42
7,8:102
7,9:102
7,15:134
7,17:134
7,19:134
7,20:134
8,5:42
8,6:42
8,8:42
8,9:42
8,15:74
8,17:74
8,19:74
8,20:74
9,5:42
9,6:42
9,8:42
9,9:42
10,2:103
10,4:103
10,5:172
10,6:172
10,7:112
10,8:172
10,9:172
10,10:42
10,11:42
10,12:42
10,13:42
10,14:61
10,15:204
10,17:204
10,19:204
10,20:204
11,2:103
11,4:103
11,5:172
11,6:172
11,7:112
11,8:172
11,9:172
11,10:42
11,11:42
12,2:103
12,4:103
12,5:172
12,6:172
12,7:112
12,8:172
12,9:172
12,10:42
12,11:42
12,12:42
13,2:103
13,4:103
13,5:172
13,6:172
13,7:112
13,8:172
13,9:172
13,10:42
13,11:42
13,12:42
13,13:42
14,2:84
14,4:84
14,5:153
14,6:153
14,7:93
14,8:153
14,9:153
14,10:23
14,11:23
14,12:23
14,13:23
14,14:42
14,15:185
15,5:10
15,6:10
15,8:10
15,9:10
15,15:42
16,2:84
16,4:84
16,5:153
16,6:153
16,7:93
16,8:153
16,9:153
16,10:23
16,11:23
16,12:23
16,13:23
16,14:42
16,15:185
16,16:42
16,17:185
16,19:185
16,20:185
17,5:10
17,6:10
17,8:10
17,9:10
17,15:42
17,17:42
18,2:84
18,4:84
18,5:153
18,6:153
18,7:93
18,8:153
18,9:153
18,10:23
18,11:23
18,12:23
18,13:23
18,14:42
18,15:185
18,16:42
18,17:185
18,18:42
18,19:185
18,20:185
19,5:10
19,6:10
19,8:10
19,9:10
19,15:42
19,17:42
19,19:42
20,5:10
20,6:10
20,8:10
20,9:10
20,15:42
20,17:42
20,19:42
20,20:42
21,2:33
21,4:33
21,5:102
21,6:102
21,7:42
21,8:102
21,9:102
21,15:134
21,17:134
21,19:134
21,20:134
21,21:42
22,2:33
22,4:33
22,5:102
22,6:102
22,7:42
22,8:102
22,9:102
22,15:134
22,17:134
22,19:134
22,20:134
22,21:42
22,22:42
22,23:42
22,24:42
23,2:33
23,4:33
23,5:102
23,6:102
23,7:42
23,8:102
23,9:102
23,15:134
23,17:134
23,19:134
23,20:134
23,21:42
23,22:42
23,23:42
23,24:42
23,25:190
23,26:190
23,27:190
24,2:33
24,4:33
24,5:102
24,6:102
24,7:42
24,8:102
24,9:102
24,15:134
24,17:134
24,19:134
24,20:134
24,21:42
24,22:42
24,23:42
24,24:42
24,25:190
24,26:190
24,27:190
25,25:42
26,25:42
26,26:42
27,25:42
27,26:42
27,27:42
28,2:136
28,4:136
28,5:205
28,6:205
28,7:145
28,8:205
28,9:205
28,10:75
28,11:75
28,12:75
28,13:75
28,14:94
28,15:237
28,16:94
28,17:237
28,18:94
28,19:237
28,20:237
28,21:145
28,22:145
28,23:145
28,24:145
28,25:293
28,26:293
28,27:293
28,28:42
29,2:136
29,4:136
29,5:205
29,6:205
29,7:145
29,8:205
29,9:205
29,10:75
29,11:75
29,12:75
29,13:75
29,14:94
29,15:237
29,16:94
29,17:237
29,18:94
29,19:237
29,20:237
29,21:145
29,22:145
29,23:145
29,24:145
29,25:293
29,26:293
29,27:293
29,28:42
29,29:42
30,2:136
30,4:136
30,5:205
30,6:205
30,7:145
30,8:205
30,9:205
30,10:75
30,11:75
30,12:75
30,13:75
30,14:94
30,15:237
30,16:94
30,17:237
30,18:94
30,19:237
30,20:237
30,21:145
30,22:145
30,23:145
30,24:145
30,25:293
30,26:293
30,27:293
30,28:42
30,29:42
30,30:42
31,2:136
31,4:136
31,5:205
31,6:205
31,7:145
31,8:205
31,9:205
31,10:75
31,11:75
31,12:75
31,13:75
31,14:94
31,15:237
31,16:94
31,17:237
31,18:94
31,19:237
31,20:237
31,21:145
31,22:145
31,23:145
31,24:145
31,25:293
31,26:293
31,27:293
31,28:42
31,29:42
31,30:42
31,31:42
32,2:136
32,4:136
32,5:205
32,6:205
32,7:145
32,8:205
32,9:205
32,10:75
32,11:75
32,12:75
32,13:75
32,14:94
32,15:237
32,16:94
32,17:237
32,18:94
32,19:237
32,20:237
32,21:145
32,22:145
32,23:145
32,24:145
32,25:293
32,26:293
32,27:293
32,28:42
32,29:42
32,30:42
32,31:42
32,32:42

<end>

<optimal SALBP-1 value>
9


<rand seed>
467321153

<Lower Bounds>
Lm1=8
Lms1=8
Lm2=1
Lm3=4
Lm4=8
Best=8

<Optimal Stations (Iterations: 10)>
10
